48 50
1 26
1 26
1 26
1 26
1 26
1 26
1 26
1 26
1 26
1 26
1 26
1 26
1 26
1 26
1 26
1 26
1 26
1 26
1 26
1 26
1 26
1 26
1 26
1 26
51 26
51 26
51 26
51 26
51 26
51 26
51 26
51 26
51 26
51 26
51 26
51 26
51 26
51 26
51 26
51 26
51 26
51 26
51 26
51 26
51 26
51 26
51 26
51 26
